p td 100 96
0 13
0 28
1 49
2 13
2 45
3 91
4 84
4 88
4 99
5 38
5 62
6 58
6 74
6 76
7 66
8 20
8 39
9 16
9 27
9 42
9 66
9 99
10 38
11 22
11 40
12 41
12 43
12 53
12 82
13 32
13 44
14 26
14 49
15 42
15 76
15 79
18 93
19 21
19 32
20 86
20 92
22 34
22 40
22 46
25 28
25 65
25 73
25 85
26 41
26 82
27 28
27 66
28 37
28 61
29 84
32 90
33 53
33 83
34 35
36 47
36 63
36 90
37 58
37 62
37 72
38 53
38 61
39 45
39 53
39 77
41 67
41 88
42 44
42 55
42 56
43 81
45 74
45 86
46 68
46 73
46 76
49 51
50 94
51 66
51 86
53 73
55 77
60 74
61 93
64 70
66 67
68 90
70 91
71 76
74 91
92 95
